# Objective value = -470
x_ij[0,1] 0
x_ij[0,2] 1
x_ij[0,3] 0
x_ij[0,9] 0
x_ij[1,2] 0
x_ij[1,3] 0
x_ij[1,4] 0
x_ij[1,5] 1
x_ij[1,6] 0
x_ij[1,7] 0
x_ij[1,8] 0
x_ij[2,1] 1
x_ij[2,3] 0
x_ij[2,4] 0
x_ij[2,5] 0
x_ij[2,6] 0
x_ij[2,7] 0
x_ij[2,8] 0
x_ij[3,1] 0
x_ij[3,2] 0
x_ij[3,4] 0
x_ij[3,5] 0
x_ij[3,6] 0
x_ij[3,7] 0
x_ij[3,8] 0
x_ij[4,1] 0
x_ij[4,2] 0
x_ij[4,3] 0
x_ij[4,5] 0
x_ij[4,6] 0
x_ij[4,7] 1
x_ij[4,8] 0
x_ij[5,1] 0
x_ij[5,2] 0
x_ij[5,3] 0
x_ij[5,4] 1
x_ij[5,6] 0
x_ij[5,7] 0
x_ij[5,8] 0
x_ij[6,2] 0
x_ij[6,3] 0
x_ij[6,4] 0
x_ij[6,5] 0
x_ij[6,7] 0
x_ij[6,8] 0
x_ij[6,9] 1
x_ij[7,1] 0
x_ij[7,3] 0
x_ij[7,4] 0
x_ij[7,5] 0
x_ij[7,6] 1
x_ij[7,8] 0
x_ij[7,9] 0
x_ij[8,1] 0
x_ij[8,2] 0
x_ij[8,4] 0
x_ij[8,5] 0
x_ij[8,6] 0
x_ij[8,7] 0
x_ij[8,9] 0
y_i[0] 0
y_i[1] 1.9999999999976694e+00
y_i[2] 1
y_i[3] 0
y_i[4] 0
y_i[5] 9.9999999999766953e-01
y_i[6] 0
y_i[7] 0
y_i[8] 0
y_i[9] 0
z_i[0] 0
z_i[1] 0
z_i[2] 0
z_i[3] 0
z_i[4] 2
z_i[5] 1
z_i[6] 0
z_i[7] 1
z_i[8] 0
z_i[9] 0
t_i[0] 0
t_i[1] 2
t_i[2] 1
t_i[3] 0
t_i[4] 4
t_i[5] 3
t_i[6] 6
t_i[7] 5
t_i[8] 11
t_i[9] 7
